seed= 2052018 ;
N= 10 ;
M= 2 ;
F= 2 ;
K= 3 ;
T= 42 ;

p=[ 2 2 2 2 2 10 10 10 10 10 ];
r=[ 2 4 8 10 4 4 7 3 10 8 ];
d=[ 3 12 1 12 10 1 12 0 18 4 ];
s=[ 1 1 1 1 1 1 1 1 1 1 ];
w=[ 5 3 1 3 3 1 3 1 4 3 ];
f=[ 1 1 1 1 1 2 2 2 2 2 ];

e1=[ 10 10 10 10 10 10 10 10 10 10 10 10 10 10 10 10 10 10 10 10 10 8 8 8 8 8 8 8 8 8 8 8 8 8 8 8 8 8 8 8 8 8 ];
e2=[ 10 10 10 10 10 10 10 10 10 10 10 10 10 10 9 9 9 9 9 9 9 8 8 8 8 8 8 8 8 8 8 8 8 8 8 9 9 9 9 9 9 9 ];